ERROR: LoadError: MathOptInterface.UnsupportedAttribute{MathOptInterface.RawParameter}: Attribute MathOptInterface.RawParameter("CPXPARAM_Threads") is not supported by the model.
Stacktrace:
 [1] set(::Gurobi.Optimizer, ::MathOptInterface.RawParameter, ::Int64) at /home/students.kutztown.edu/adell892/.julia/packages/Gurobi/8lxab/src/MOI_wrapper.jl:525
 [2] set(::MathOptInterface.Bridges.LazyBridgeOptimizer{Gurobi.Optimizer}, ::MathOptInterface.RawParameter, ::Int64) at /home/students.kutztown.edu/adell892/.julia/packages/MathOptInterface/5WwpK/src/Bridges/bridge_optimizer.jl:726
 [3] set(::MathOptInterface.Utilities.CachingOptimizer{MathOptInterface.AbstractOptimizer,MathOptInterface.Utilities.UniversalFallback{MathOptInterface.Utilities.Model{Float64}}}, ::MathOptInterface.RawParameter, ::Int64) at /home/students.kutztown.edu/adell892/.julia/packages/MathOptInterface/5WwpK/src/Utilities/cachingoptimizer.jl:800
 [4] set(::JuMP.Model, ::MathOptInterface.RawParameter, ::Int64) at /home/students.kutztown.edu/adell892/.julia/packages/JuMP/qhoVb/src/JuMP.jl:893
 [5] set_optimizer_attribute at /home/students.kutztown.edu/adell892/.julia/packages/JuMP/qhoVb/src/JuMP.jl:542 [inlined]
 [6] set_optimizer_attribute at /home/students.kutztown.edu/adell892/.julia/packages/JuMP/qhoVb/src/JuMP.jl:521 [inlined]
 [7] create_MIPS_model(::Main.MDMKP.MDMKP_Prob; optimizer::Type{T} where T, time_limit::Int64, weight::Int64, num_threads::Int64) at /home/students.kutztown.edu/adell892/julia/JuliaOptHeuristics/MDMKP/MDMKP.jl:102
 [8] create_MIPS_model at /home/students.kutztown.edu/adell892/julia/JuliaOptHeuristics/MDMKP/MDMKP.jl:99 [inlined]
 [9] generate_comparison_data(::Array{Main.JOH.Matheur.SSIT.SSIT_method,1}, ::Array{Array{Main.JOH.Problem,1},1}, ::Type{T} where T; results_dir::String) at /home/students.kutztown.edu/adell892/julia/JuliaOptHeuristics/experiments/ssit_compare.jl:127
 [10] record_dataset(::UnitRange{Int64}, ::Array{Main.JOH.Matheur.SSIT.SSIT_method,1}, ::Array{Main.MDMKP.MDMKP_Prob,1}, ::Type{T} where T, ::String) at /home/students.kutztown.edu/adell892/julia/JuliaOptHeuristics/experiments/ssit_compare.jl:168
 [11] top-level scope at /home/students.kutztown.edu/adell892/julia/JuliaOptHeuristics/experiments/ssit_compare.jl:176
 [12] include(::Function, ::Module, ::String) at ./Base.jl:380
 [13] include(::Module, ::String) at ./Base.jl:368
 [14] exec_options(::Base.JLOptions) at ./client.jl:296
 [15] _start() at ./client.jl:506
in expression starting at /home/students.kutztown.edu/adell892/julia/JuliaOptHeuristics/experiments/ssit_compare.jl:176
